c
c
c
c
c
16 136
0 0 -1
0 1 20
0 2 15
0 3 12
0 4 25
0 5 2
0 6 17
0 7 29
0 8 26
0 9 4
0 10 28
0 11 14
0 12 2
0 13 25
0 14 10
0 15 24
1 1 -1
1 2 15
1 3 26
1 4 7
1 5 29
1 6 15
1 7 22
1 8 23
1 9 14
1 10 30
1 11 16
1 12 26
1 13 28
1 14 17
1 15 16
2 2 -1
2 3 11
2 4 4
2 5 19
2 6 23
2 7 30
2 8 23
2 9 11
2 10 7
2 11 27
2 12 1
2 13 24
2 14 23
2 15 29
3 3 -1
3 4 7
3 5 18
3 6 30
3 7 26
3 8 12
3 9 18
3 10 23
3 11 13
3 12 29
3 13 22
3 14 16
3 15 15
4 4 -1
4 5 16
4 6 23
4 7 25
4 8 11
4 9 8
4 10 18
4 11 16
4 12 13
4 13 29
4 14 28
4 15 18
5 5 -1
5 6 26
5 7 18
5 8 8
5 9 24
5 10 14
5 11 9
5 12 4
5 13 26
5 14 16
5 15 20
6 6 -1
6 7 14
6 8 6
6 9 8
6 10 30
6 11 1
6 12 19
6 13 9
6 14 29
6 15 4
7 7 -1
7 8 2
7 9 1
7 10 3
7 11 4
7 12 6
7 13 3
7 14 10
7 15 6
8 8 -1
8 9 21
8 10 5
8 11 20
8 12 23
8 13 21
8 14 28
8 15 1
9 9 -1
9 10 26
9 11 14
9 12 9
9 13 21
9 14 14
9 15 15
10 10 -1
10 11 10
10 12 7
10 13 7
10 14 1
10 15 16
11 11 -1
11 12 9
11 13 18
11 14 19
11 15 27
12 12 -1
12 13 23
12 14 15
12 15 17
13 13 -1
13 14 26
13 15 25
14 14 -1
14 15 6
15 15 -1
